&CONTROL
  calculation = 'scf'
  restart_mode = 'from_scratch'
  outdir = '../temp/'
  prefix = 'BTTL1'
  pseudo_dir = '/projects/chlu6955/SSSP/'
  etot_conv_thr = 1e-5
  forc_conv_thr = 1e-4
  nstep = 500
/
&SYSTEM
  ecutrho = 294
  ecutwfc = 36.749
  ibrav = 0
  nat = 492
  ntyp = 5
  occupations = 'smearing'
  smearing = 'gaussian'
  degauss = 0.005
  vdw_corr = 'dft-d'
/
&ELECTRONS
  conv_thr = 5.e-6
  electron_maxstep = 500
  mixing_beta = 0.4
/

&ions
/

&cell
/
ATOMIC_SPECIES
H      1.00794 H.pbe-rrkjus_psl.1.0.0.UPF
C      12.0107 C.pbe-n-kjpaw_psl.1.0.0.UPF
O      15.9994 O.pbe-n-kjpaw_psl.0.1.UPF
S      32.065 s_pbe_v1.4.uspp.F.UPF
Zn     65.38 Zn_pbe_v1.uspp.F.UPF
ATOMIC_POSITIONS crystal
Zn           0.8583000000       0.8224000000       0.4435900000
Zn           0.1417000000       0.1776000000       0.9435900000
Zn           0.1776000000       0.8583000000       0.6935900000
Zn           0.8224000000       0.1417000000       0.1935900000
Zn           0.1417000000       0.8224000000       0.5564100000
Zn           0.8583000000       0.1776000000       0.0564100000
Zn           0.8224000000       0.8583000000       0.3064100000
Zn           0.1776000000       0.1417000000       0.8064100000
O            0.7770000000       0.8284000000       0.4121000000
O            0.2230000000       0.1716000000       0.9121000000
O            0.1716000000       0.7770000000       0.6621000000
O            0.8284000000       0.2230000000       0.1621000000
O            0.2230000000       0.8284000000       0.5879000000
O            0.7770000000       0.1716000000       0.0879000000
O            0.8284000000       0.7770000000       0.3379000000
O            0.1716000000       0.2230000000       0.8379000000
C            0.2580000000       0.9110000000       0.2573000000
C            0.7420000000       0.0890000000       0.7573000000
C            0.0890000000       0.2580000000       0.5073000000
C            0.9110000000       0.7420000000       0.0073000000
C            0.7420000000       0.9110000000       0.7427000000
C            0.2580000000       0.0890000000       0.2427000000
C            0.9110000000       0.2580000000       0.4927000000
C            0.0890000000       0.7420000000       0.9927000000
C            0.3210000000       0.9060000000       0.2455000000
C            0.6790000000       0.0940000000       0.7455000000
C            0.0940000000       0.3210000000       0.4955000000
C            0.9060000000       0.6790000000       0.9955000000
C            0.6790000000       0.9060000000       0.7545000000
C            0.3210000000       0.0940000000       0.2545000000
C            0.9060000000       0.3210000000       0.5045000000
C            0.0940000000       0.6790000000       0.0045000000
C            0.3320000000       0.9320000000       0.2113000000
C            0.6680000000       0.0680000000       0.7113000000
C            0.0680000000       0.3320000000       0.4613000000
C            0.9320000000       0.6680000000       0.9613000000
C            0.6680000000       0.9320000000       0.7887000000
C            0.3320000000       0.0680000000       0.2887000000
C            0.9320000000       0.3320000000       0.5387000000
C            0.0680000000       0.6680000000       0.0387000000
C            0.2790000000       0.9460000000       0.1891000000
C            0.7210000000       0.0540000000       0.6891000000
C            0.0540000000       0.2790000000       0.4391000000
C            0.9460000000       0.7210000000       0.9391000000
C            0.7210000000       0.9460000000       0.8109000000
C            0.2790000000       0.0540000000       0.3109000000
C            0.9460000000       0.2790000000       0.5609000000
C            0.0540000000       0.7210000000       0.0609000000
C            0.2210000000       0.9450000000       0.1994000000
C            0.7790000000       0.0550000000       0.6994000000
C            0.0550000000       0.2210000000       0.4494000000
C            0.9450000000       0.7790000000       0.9494000000
C            0.7790000000       0.9450000000       0.8006000000
C            0.2210000000       0.0550000000       0.3006000000
C            0.9450000000       0.2210000000       0.5506000000
C            0.0550000000       0.7790000000       0.0506000000
C            0.2060000000       0.9190000000       0.2356000000
C            0.7940000000       0.0810000000       0.7356000000
C            0.0810000000       0.2060000000       0.4856000000
C            0.9190000000       0.7940000000       0.9856000000
C            0.7940000000       0.9190000000       0.7644000000
C            0.2060000000       0.0810000000       0.2644000000
C            0.9190000000       0.2060000000       0.5144000000
C            0.0810000000       0.7940000000       0.0144000000
C            0.1587000000       0.8860000000       0.2919000000
C            0.8413000000       0.1140000000       0.7919000000
C            0.1140000000       0.1587000000       0.5419000000
C            0.8860000000       0.8413000000       0.0419000000
C            0.8413000000       0.8860000000       0.7081000000
C            0.1587000000       0.1140000000       0.2081000000
C            0.8860000000       0.1587000000       0.4581000000
C            0.1140000000       0.8413000000       0.9581000000
C            0.2395000000       0.8806000000       0.2990000000
C            0.7605000000       0.1194000000       0.7990000000
C            0.1194000000       0.2395000000       0.5490000000
C            0.8806000000       0.7605000000       0.0490000000
C            0.7605000000       0.8806000000       0.7010000000
C            0.2395000000       0.1194000000       0.2010000000
C            0.8806000000       0.2395000000       0.4510000000
C            0.1194000000       0.7605000000       0.9510000000
C            0.1127000000       0.8738000000       0.3239000000
C            0.8873000000       0.1262000000       0.8239000000
C            0.1262000000       0.1127000000       0.5739000000
C            0.8738000000       0.8873000000       0.0739000000
C            0.8873000000       0.8738000000       0.6761000000
C            0.1127000000       0.1262000000       0.1761000000
C            0.8738000000       0.1127000000       0.4261000000
C            0.1262000000       0.8873000000       0.9261000000
C            0.0465000000       0.8894000000       0.3224000000
C            0.9535000000       0.1106000000       0.8224000000
C            0.1106000000       0.0465000000       0.5724000000
C            0.8894000000       0.9535000000       0.0724000000
C            0.9535000000       0.8894000000       0.6776000000
C            0.0465000000       0.1106000000       0.1776000000
C            0.8894000000       0.0465000000       0.4276000000
C            0.1106000000       0.9535000000       0.9276000000
C            0.0061000000       0.8758000000       0.3521000000
C            0.9939000000       0.1242000000       0.8521000000
C            0.1242000000       0.0061000000       0.6021000000
C            0.8758000000       0.9939000000       0.1021000000
C            0.9939000000       0.8758000000       0.6479000000
C            0.0061000000       0.1242000000       0.1479000000
C            0.8758000000       0.0061000000       0.3979000000
C            0.1242000000       0.9939000000       0.8979000000
C            0.0319000000       0.8466000000       0.3834000000
C            0.9681000000       0.1534000000       0.8834000000
C            0.1534000000       0.0319000000       0.6334000000
C            0.8466000000       0.9681000000       0.1334000000
C            0.9681000000       0.8466000000       0.6166000000
C            0.0319000000       0.1534000000       0.1166000000
C            0.8466000000       0.0319000000       0.3666000000
C            0.1534000000       0.9681000000       0.8666000000
C            0.0980000000       0.8310000000       0.3850000000
C            0.9020000000       0.1690000000       0.8850000000
C            0.1690000000       0.0980000000       0.6350000000
C            0.8310000000       0.9020000000       0.1350000000
C            0.9020000000       0.8310000000       0.6150000000
C            0.0980000000       0.1690000000       0.1150000000
C            0.8310000000       0.0980000000       0.3650000000
C            0.1690000000       0.9020000000       0.8650000000
C            0.1385000000       0.8446000000       0.3552000000
C            0.8615000000       0.1554000000       0.8552000000
C            0.1554000000       0.1385000000       0.6052000000
C            0.8446000000       0.8615000000       0.1052000000
C            0.8615000000       0.8446000000       0.6448000000
C            0.1385000000       0.1554000000       0.1448000000
C            0.8446000000       0.1385000000       0.3948000000
C            0.1554000000       0.8615000000       0.8948000000
C            0.9847000000       0.8374000000       0.4134000000
C            0.0153000000       0.1626000000       0.9134000000
C            0.1626000000       0.9847000000       0.6634000000
C            0.8374000000       0.0153000000       0.1634000000
C            0.0153000000       0.8374000000       0.5866000000
C            0.9847000000       0.1626000000       0.0866000000
C            0.8374000000       0.9847000000       0.3366000000
C            0.1626000000       0.0153000000       0.8366000000
O            0.9236000000       0.8424000000       0.4110000000
O            0.0764000000       0.1576000000       0.9110000000
O            0.1576000000       0.9236000000       0.6610000000
O            0.8424000000       0.0764000000       0.1610000000
O            0.0764000000       0.8424000000       0.5890000000
O            0.9236000000       0.1576000000       0.0890000000
O            0.8424000000       0.9236000000       0.3390000000
O            0.1576000000       0.0764000000       0.8390000000
O            0.0097000000       0.8188000000       0.4437000000
O            0.9903000000       0.1812000000       0.9437000000
O            0.1812000000       0.0097000000       0.6937000000
O            0.8188000000       0.9903000000       0.1937000000
O            0.9903000000       0.8188000000       0.5563000000
O            0.0097000000       0.1812000000       0.0563000000
O            0.8188000000       0.0097000000       0.3063000000
O            0.1812000000       0.9903000000       0.8063000000
C            0.4334000000       0.9080000000       0.2387000000
C            0.5666000000       0.0920000000       0.7387000000
C            0.0920000000       0.4334000000       0.4887000000
C            0.9080000000       0.5666000000       0.9887000000
C            0.5666000000       0.9080000000       0.7613000000
C            0.4334000000       0.0920000000       0.2613000000
C            0.9080000000       0.4334000000       0.5113000000
C            0.0920000000       0.5666000000       0.0113000000
C            0.4096000000       0.9342000000       0.1970000000
C            0.5904000000       0.0658000000       0.6970000000
C            0.0658000000       0.4096000000       0.4470000000
C            0.9342000000       0.5904000000       0.9470000000
C            0.5904000000       0.9342000000       0.8030000000
C            0.4096000000       0.0658000000       0.3030000000
C            0.9342000000       0.4096000000       0.5530000000
C            0.0658000000       0.5904000000       0.0530000000
C            0.5068000000       0.9061000000       0.2465000000
C            0.4932000000       0.0939000000       0.7465000000
C            0.0939000000       0.5068000000       0.4965000000
C            0.9061000000       0.4932000000       0.9965000000
C            0.4932000000       0.9061000000       0.7535000000
C            0.5068000000       0.0939000000       0.2535000000
C            0.9061000000       0.5068000000       0.5035000000
C            0.0939000000       0.4932000000       0.0035000000
C            0.5289000000       0.8763000000       0.2784000000
C            0.4711000000       0.1237000000       0.7784000000
C            0.1237000000       0.5289000000       0.5284000000
C            0.8763000000       0.4711000000       0.0284000000
C            0.4711000000       0.8763000000       0.7216000000
C            0.5289000000       0.1237000000       0.2216000000
C            0.8763000000       0.5289000000       0.4716000000
C            0.1237000000       0.4711000000       0.9716000000
C            0.5956000000       0.8711000000       0.2852000000
C            0.4044000000       0.1289000000       0.7852000000
C            0.1289000000       0.5956000000       0.5352000000
C            0.8711000000       0.4044000000       0.0352000000
C            0.4044000000       0.8711000000       0.7148000000
C            0.5956000000       0.1289000000       0.2148000000
C            0.8711000000       0.5956000000       0.4648000000
C            0.1289000000       0.4044000000       0.9648000000
C            0.6403000000       0.8957000000       0.2599000000
C            0.3597000000       0.1043000000       0.7599000000
C            0.1043000000       0.6403000000       0.5099000000
C            0.8957000000       0.3597000000       0.0099000000
C            0.3597000000       0.8957000000       0.7401000000
C            0.6403000000       0.1043000000       0.2401000000
C            0.8957000000       0.6403000000       0.4901000000
C            0.1043000000       0.3597000000       0.9901000000
C            0.6183000000       0.9256000000       0.2280000000
C            0.3817000000       0.0744000000       0.7280000000
C            0.0744000000       0.6183000000       0.4780000000
C            0.9256000000       0.3817000000       0.9780000000
C            0.3817000000       0.9256000000       0.7720000000
C            0.6183000000       0.0744000000       0.2720000000
C            0.9256000000       0.6183000000       0.5220000000
C            0.0744000000       0.3817000000       0.0220000000
C            0.5515000000       0.9308000000       0.2212000000
C            0.4485000000       0.0692000000       0.7212000000
C            0.0692000000       0.5515000000       0.4712000000
C            0.9308000000       0.4485000000       0.9712000000
C            0.4485000000       0.9308000000       0.7788000000
C            0.5515000000       0.0692000000       0.2788000000
C            0.9308000000       0.5515000000       0.5288000000
C            0.0692000000       0.4485000000       0.0288000000
C            0.7086000000       0.8920000000       0.2726000000
C            0.2914000000       0.1080000000       0.7726000000
C            0.1080000000       0.7086000000       0.5226000000
C            0.8920000000       0.2914000000       0.0226000000
C            0.2914000000       0.8920000000       0.7274000000
C            0.7086000000       0.1080000000       0.2274000000
C            0.8920000000       0.7086000000       0.4774000000
C            0.1080000000       0.2914000000       0.9774000000
O            0.7342000000       0.8578000000       0.2973000000
O            0.2658000000       0.1422000000       0.7973000000
O            0.1422000000       0.7342000000       0.5473000000
O            0.8578000000       0.2658000000       0.0473000000
O            0.2658000000       0.8578000000       0.7027000000
O            0.7342000000       0.1422000000       0.2027000000
O            0.8578000000       0.7342000000       0.4527000000
O            0.1422000000       0.2658000000       0.9527000000
O            0.7442000000       0.9249000000       0.2506000000
O            0.2558000000       0.0751000000       0.7506000000
O            0.0751000000       0.7442000000       0.5006000000
O            0.9249000000       0.2558000000       0.0006000000
O            0.2558000000       0.9249000000       0.7494000000
O            0.7442000000       0.0751000000       0.2494000000
O            0.9249000000       0.7442000000       0.4994000000
O            0.0751000000       0.2558000000       0.9994000000
C            0.2138000000       0.9750000000       0.1379000000
C            0.7862000000       0.0250000000       0.6379000000
C            0.0250000000       0.2138000000       0.3879000000
C            0.9750000000       0.7862000000       0.8879000000
C            0.7862000000       0.9750000000       0.8621000000
C            0.2138000000       0.0250000000       0.3621000000
C            0.9750000000       0.2138000000       0.6121000000
C            0.0250000000       0.7862000000       0.1121000000
C            0.1580000000       0.9568000000       0.1698000000
C            0.8420000000       0.0432000000       0.6698000000
C            0.0432000000       0.1580000000       0.4198000000
C            0.9568000000       0.8420000000       0.9198000000
C            0.8420000000       0.9568000000       0.8302000000
C            0.1580000000       0.0432000000       0.3302000000
C            0.9568000000       0.1580000000       0.5802000000
C            0.0432000000       0.8420000000       0.0802000000
C            0.1909000000       0.9997000000       0.1005000000
C            0.8091000000       0.0003000000       0.6005000000
C            0.0003000000       0.1909000000       0.3505000000
C            0.9997000000       0.8091000000       0.8505000000
C            0.8091000000       0.9997000000       0.8995000000
C            0.1909000000       0.0003000000       0.3995000000
C            0.9997000000       0.1909000000       0.6495000000
C            0.0003000000       0.8091000000       0.1495000000
C            0.2355000000       0.0274000000       0.0762000000
C            0.7645000000       0.9726000000       0.5762000000
C            0.9726000000       0.2355000000       0.3262000000
C            0.0274000000       0.7645000000       0.8262000000
C            0.7645000000       0.0274000000       0.9238000000
C            0.2355000000       0.9726000000       0.4238000000
C            0.0274000000       0.2355000000       0.6738000000
C            0.9726000000       0.7645000000       0.1738000000
C            0.2134000000       0.0576000000       0.0443000000
C            0.7866000000       0.9424000000       0.5443000000
C            0.9424000000       0.2134000000       0.2943000000
C            0.0576000000       0.7866000000       0.7943000000
C            0.7866000000       0.0576000000       0.9557000000
C            0.2134000000       0.9424000000       0.4557000000
C            0.0576000000       0.2134000000       0.7057000000
C            0.9424000000       0.7866000000       0.2057000000
C            0.1467000000       0.0601000000       0.0367000000
C            0.8533000000       0.9399000000       0.5367000000
C            0.9399000000       0.1467000000       0.2867000000
C            0.0601000000       0.8533000000       0.7867000000
C            0.8533000000       0.0601000000       0.9633000000
C            0.1467000000       0.9399000000       0.4633000000
C            0.0601000000       0.1467000000       0.7133000000
C            0.9399000000       0.8533000000       0.2133000000
C            0.1021000000       0.0324000000       0.0610000000
C            0.8979000000       0.9676000000       0.5610000000
C            0.9676000000       0.1021000000       0.3110000000
C            0.0324000000       0.8979000000       0.8110000000
C            0.8979000000       0.0324000000       0.9390000000
C            0.1021000000       0.9676000000       0.4390000000
C            0.0324000000       0.1021000000       0.6890000000
C            0.9676000000       0.8979000000       0.1890000000
C            0.1242000000       0.0022000000       0.0929000000
C            0.8758000000       0.9978000000       0.5929000000
C            0.9978000000       0.1242000000       0.3429000000
C            0.0022000000       0.8758000000       0.8429000000
C            0.8758000000       0.0022000000       0.9071000000
C            0.1242000000       0.9978000000       0.4071000000
C            0.0022000000       0.1242000000       0.6571000000
C            0.9978000000       0.8758000000       0.1571000000
C            0.1330000000       0.1000000000       0.0038000000
C            0.8670000000       0.9000000000       0.5038000000
C            0.9000000000       0.1330000000       0.2538000000
C            0.1000000000       0.8670000000       0.7538000000
C            0.8670000000       0.1000000000       0.9962000000
C            0.1330000000       0.9000000000       0.4962000000
C            0.1000000000       0.1330000000       0.7462000000
C            0.9000000000       0.8670000000       0.2462000000
O            0.1747000000       0.1197000000       0.9815000000
O            0.8253000000       0.8803000000       0.4815000000
O            0.8803000000       0.1747000000       0.2315000000
O            0.1197000000       0.8253000000       0.7315000000
O            0.8253000000       0.1197000000       0.0185000000
O            0.1747000000       0.8803000000       0.5185000000
O            0.1197000000       0.1747000000       0.7685000000
O            0.8803000000       0.8253000000       0.2685000000
O            0.0729000000       0.0992000000       0.9959000000
O            0.9271000000       0.9008000000       0.4959000000
O            0.9008000000       0.0729000000       0.2459000000
O            0.0992000000       0.9271000000       0.7459000000
O            0.9271000000       0.0992000000       0.0041000000
O            0.0729000000       0.9008000000       0.5041000000
O            0.0992000000       0.0729000000       0.7541000000
O            0.9008000000       0.9271000000       0.2541000000
S            0.8746000000       0.9092000000       0.7486000000
S            0.1254000000       0.0908000000       0.2486000000
S            0.0908000000       0.8746000000       0.9986000000
S            0.9092000000       0.1254000000       0.4986000000
S            0.1254000000       0.9092000000       0.2514000000
S            0.8746000000       0.0908000000       0.7514000000
S            0.9092000000       0.8746000000       0.0014000000
S            0.0908000000       0.1254000000       0.5014000000
S            0.6179000000       0.8849000000       0.7272000000
S            0.3821000000       0.1151000000       0.2272000000
S            0.1151000000       0.6179000000       0.9772000000
S            0.8849000000       0.3821000000       0.4772000000
S            0.3821000000       0.8849000000       0.2728000000
S            0.6179000000       0.1151000000       0.7728000000
S            0.8849000000       0.6179000000       0.0228000000
S            0.1151000000       0.3821000000       0.5228000000
S            0.7050000000       0.9724000000       0.8547000000
S            0.2950000000       0.0276000000       0.3547000000
S            0.0276000000       0.7050000000       0.1047000000
S            0.9724000000       0.2950000000       0.6047000000
S            0.2950000000       0.9724000000       0.1453000000
S            0.7050000000       0.0276000000       0.6453000000
S            0.9724000000       0.7050000000       0.8953000000
S            0.0276000000       0.2950000000       0.3953000000
H            0.0496900000       0.4214000000       0.4177700000
H            0.9503100000       0.5786000000       0.9177700000
H            0.5786000000       0.0496900000       0.6677700000
H            0.4214000000       0.9503100000       0.1677700000
H            0.9503100000       0.4214000000       0.5822300000
H            0.0496900000       0.5786000000       0.0822300000
H            0.4214000000       0.0496900000       0.3322300000
H            0.5786000000       0.9503100000       0.8322300000
H            0.1439900000       0.4922800000       0.5491000000
H            0.8560100000       0.5077200000       0.0491000000
H            0.5077200000       0.1439900000       0.7991000000
H            0.4922800000       0.8560100000       0.2991000000
H            0.8560100000       0.4922800000       0.4509000000
H            0.1439900000       0.5077200000       0.9509000000
H            0.4922800000       0.1439900000       0.2009000000
H            0.5077200000       0.8560100000       0.7009000000
H            0.1532900000       0.6136300000       0.5614700000
H            0.8467100000       0.3863700000       0.0614700000
H            0.3863700000       0.1532900000       0.8114700000
H            0.6136300000       0.8467100000       0.3114700000
H            0.8467100000       0.6136300000       0.4385300000
H            0.1532900000       0.3863700000       0.9385300000
H            0.6136300000       0.1532900000       0.1885300000
H            0.3863700000       0.8467100000       0.6885300000
H            0.0540800000       0.6549800000       0.4573500000
H            0.9459200000       0.3450200000       0.9573500000
H            0.3450200000       0.0540800000       0.7073500000
H            0.6549800000       0.9459200000       0.2073500000
H            0.9459200000       0.6549800000       0.5426500000
H            0.0540800000       0.3450200000       0.0426500000
H            0.6549800000       0.0540800000       0.2926500000
H            0.3450200000       0.9459200000       0.7926500000
H            0.0447500000       0.5334600000       0.4449500000
H            0.9552500000       0.4665400000       0.9449500000
H            0.4665400000       0.0447500000       0.6949500000
H            0.5334600000       0.9552500000       0.1949500000
H            0.9552500000       0.5334600000       0.5550500000
H            0.0447500000       0.4665400000       0.0550500000
H            0.5334600000       0.0447500000       0.3050500000
H            0.4665400000       0.9552500000       0.8050500000
H            0.0503100000       0.1054100000       0.4294900000
H            0.9496900000       0.8945900000       0.9294900000
H            0.8945900000       0.0503100000       0.6794900000
H            0.1054100000       0.9496900000       0.1794900000
H            0.9496900000       0.1054100000       0.5705100000
H            0.0503100000       0.8945900000       0.0705100000
H            0.1054100000       0.0503100000       0.3205100000
H            0.8945900000       0.9496900000       0.8205100000
H            0.1339100000       0.2803400000       0.5687200000
H            0.8660900000       0.7196600000       0.0687200000
H            0.7196600000       0.1339100000       0.8187200000
H            0.2803400000       0.8660900000       0.3187200000
H            0.8660900000       0.2803400000       0.4312800000
H            0.1339100000       0.7196600000       0.9312800000
H            0.2803400000       0.1339100000       0.1812800000
H            0.7196600000       0.8660900000       0.6812800000
H            0.0253100000       0.9133900000       0.2967600000
H            0.9746900000       0.0866100000       0.7967600000
H            0.0866100000       0.0253100000       0.5467600000
H            0.9133900000       0.9746900000       0.0467600000
H            0.9746900000       0.9133900000       0.7032400000
H            0.0253100000       0.0866100000       0.2032400000
H            0.9133900000       0.0253100000       0.4532400000
H            0.0866100000       0.9746900000       0.9532400000
H            0.9518200000       0.8885800000       0.3508100000
H            0.0481800000       0.1114200000       0.8508100000
H            0.1114200000       0.9518200000       0.6008100000
H            0.8885800000       0.0481800000       0.1008100000
H            0.0481800000       0.8885800000       0.6491900000
H            0.9518200000       0.1114200000       0.1491900000
H            0.8885800000       0.9518200000       0.3991900000
H            0.1114200000       0.0481800000       0.8991900000
H            0.1190800000       0.8070800000       0.4106900000
H            0.8809200000       0.1929200000       0.9106900000
H            0.1929200000       0.1190800000       0.6606900000
H            0.8070800000       0.8809200000       0.1606900000
H            0.8809200000       0.8070800000       0.5893100000
H            0.1190800000       0.1929200000       0.0893100000
H            0.8070800000       0.1190800000       0.3393100000
H            0.1929200000       0.8809200000       0.8393100000
H            0.1927800000       0.8318000000       0.3564600000
H            0.8072200000       0.1682000000       0.8564600000
H            0.1682000000       0.1927800000       0.6064600000
H            0.8318000000       0.8072200000       0.1064600000
H            0.8072200000       0.8318000000       0.6435400000
H            0.1927800000       0.1682000000       0.1435400000
H            0.8318000000       0.1927800000       0.3935400000
H            0.1682000000       0.8072200000       0.8935400000
H            0.2901600000       0.9746500000       0.4175700000
H            0.7098400000       0.0253500000       0.9175700000
H            0.0253500000       0.2901600000       0.6675700000
H            0.9746500000       0.7098400000       0.1675700000
H            0.7098400000       0.9746500000       0.5824300000
H            0.2901600000       0.0253500000       0.0824300000
H            0.9746500000       0.2901600000       0.3324300000
H            0.0253500000       0.7098400000       0.8324300000
H            0.2499500000       0.9196800000       0.4756300000
H            0.7500500000       0.0803200000       0.9756300000
H            0.0803200000       0.2499500000       0.7256300000
H            0.9196800000       0.7500500000       0.2256300000
H            0.7500500000       0.9196800000       0.5243700000
H            0.2499500000       0.0803200000       0.0243700000
H            0.9196800000       0.2499500000       0.2743700000
H            0.0803200000       0.7500500000       0.7743700000
H            0.0876400000       0.0205100000       0.3871800000